
Gurobi 9.0.2 (mac64) logging started Fri Sep 25 17:04:16 2020

Changed value of parameter LogFile to logFiles/ExampleTFA.log
   Prev:   Default: 
Changed value of parameter Threads to 1
   Prev: 0  Min: 0  Max: 1024  Default: 0
Gurobi Optimizer version 9.0.2 build v9.0.2rc0 (mac64)
Optimize a model with 50 rows, 2550 columns and 2550 nonzeros
Model fingerprint: 0x5933e68e
Model has 13413 quadratic objective terms
Coefficient statistics:
  Matrix range     [2e-02, 2e-02]
  Objective range  [2e-01, 1e+03]
  QObjective range [7e-01, 5e+03]
  Bounds range     [1e-04, 1e-04]
  RHS range        [1e+00, 1e+00]
Presolve time: 0.02s
Presolved: 50 rows, 2550 columns, 2550 nonzeros
Presolved model has 13413 quadratic objective terms
Ordering time: 0.00s

Barrier statistics:
 Free vars  : 2244
 AA' NZ     : 6.127e+04
 Factor NZ  : 1.482e+05 (roughly 4 MBytes of memory)
 Factor Ops : 1.014e+07 (less than 1 second per iteration)
 Threads    : 1

                  Objective                Residual
Iter       Primal          Dual         Primal    Dual     Compl     Time
   0   2.14910312e+08 -1.01509802e+08  3.20e+04 5.10e+00  1.00e+06     0s
   1   3.40748636e+06 -6.89808934e+06  5.37e+00 8.57e-04  4.20e+03     0s
   2   3.38859665e+06  3.32414245e+06  6.61e-03 1.05e-06  2.53e+01     0s
   3   3.38855287e+06  3.38846790e+06  1.22e-06 1.94e-10  3.33e-02     0s
   4   3.38855282e+06  3.38855273e+06  6.59e-12 2.76e-12  3.45e-05     0s
   5   3.38855282e+06  3.38855282e+06  5.68e-13 2.61e-12  3.46e-08     0s
   6   3.38855282e+06  3.38855282e+06  1.71e-13 2.42e-12  3.46e-11     0s

Barrier solved model in 6 iterations and 0.07 seconds
Optimal objective 3.38855282e+06


Gurobi 9.0.2 (mac64) logging started Fri Sep 25 17:08:58 2020

Changed value of parameter LogFile to logFiles/ExampleTFA.log
   Prev:   Default: 
Changed value of parameter Threads to 1
   Prev: 0  Min: 0  Max: 1024  Default: 0
Gurobi Optimizer version 9.0.2 build v9.0.2rc0 (mac64)
Optimize a model with 50 rows, 2550 columns and 2550 nonzeros
Model fingerprint: 0xcc3eea73
Model has 13413 quadratic objective terms
Coefficient statistics:
  Matrix range     [2e-02, 2e-02]
  Objective range  [3e-01, 2e+03]
  QObjective range [7e-02, 5e+03]
  Bounds range     [1e-04, 1e-04]
  RHS range        [1e+00, 1e+00]
Presolve time: 0.01s
Presolved: 50 rows, 2550 columns, 2550 nonzeros
Presolved model has 13413 quadratic objective terms
Ordering time: 0.01s

Barrier statistics:
 Free vars  : 2244
 AA' NZ     : 6.127e+04
 Factor NZ  : 1.482e+05 (roughly 4 MBytes of memory)
 Factor Ops : 1.014e+07 (less than 1 second per iteration)
 Threads    : 1

                  Objective                Residual
Iter       Primal          Dual         Primal    Dual     Compl     Time
   0   3.04618678e+07 -8.53477745e+07  3.20e+04 7.81e+00  1.00e+06     0s
   1   3.27687879e+06 -8.41842411e+06  9.39e+00 2.29e-03  4.88e+03     0s
   2   3.29305623e+06  3.16231125e+06  1.09e-02 2.66e-06  5.13e+01     0s
   3   3.29305270e+06  3.29279785e+06  9.57e-06 2.33e-09  9.99e-02     0s
   4   3.29305270e+06  3.29305244e+06  1.58e-10 3.91e-14  1.02e-04     0s
   5   3.29305270e+06  3.29305270e+06  6.82e-13 2.50e-12  1.02e-07     0s
   6   3.29305270e+06  3.29305270e+06  5.68e-13 3.81e-12  1.02e-10     0s

Barrier solved model in 6 iterations and 0.06 seconds
Optimal objective 3.29305270e+06


Gurobi 9.0.2 (mac64) logging started Fri Sep 25 17:24:33 2020

Changed value of parameter LogFile to logFiles/ExampleTFA.log
   Prev:   Default: 
Changed value of parameter Threads to 1
   Prev: 0  Min: 0  Max: 1024  Default: 0
Gurobi Optimizer version 9.0.2 build v9.0.2rc0 (mac64)
Optimize a model with 50 rows, 2550 columns and 2550 nonzeros
Model fingerprint: 0xc788864a
Model has 13413 quadratic objective terms
Coefficient statistics:
  Matrix range     [2e-02, 2e-02]
  Objective range  [6e+01, 3e+04]
  QObjective range [1e-06, 2e+04]
  Bounds range     [1e-04, 1e-04]
  RHS range        [1e+00, 1e+00]
Warning: Model contains large quadratic objective coefficient range
         Consider reformulating model or setting NumericFocus parameter
         to avoid numerical issues.
Presolve time: 0.00s
Presolved: 50 rows, 2550 columns, 2550 nonzeros
Presolved model has 13413 quadratic objective terms
Ordering time: 0.00s

Barrier statistics:
 Free vars  : 2244
 AA' NZ     : 6.008e+04
 Factor NZ  : 1.482e+05 (roughly 4 MBytes of memory)
 Factor Ops : 1.014e+07 (less than 1 second per iteration)
 Threads    : 1

                  Objective                Residual
Iter       Primal          Dual         Primal    Dual     Compl     Time
   0  -8.48661511e+09 -7.74291661e+07  3.20e+04 1.37e+01  1.00e+06     0s
   1  -2.51146696e+06 -1.60547326e+07  9.40e+00 4.02e-03  6.59e+03     0s
   2  -3.73550065e+03 -1.53187585e+05  1.66e-02 7.12e-06  6.04e+01     0s
   3   6.51567251e+02  2.30333707e+02  2.68e-05 1.15e-08  1.68e-01     0s
   4   6.58661558e+02  6.58226827e+02  4.19e-10 1.78e-13  1.71e-04     0s
   5   6.58661670e+02  6.58661234e+02  6.82e-13 1.09e-11  1.71e-07     0s
   6   6.58661670e+02  6.58661669e+02  9.09e-13 7.28e-12  1.71e-10     0s

Barrier solved model in 6 iterations and 0.06 seconds
Optimal objective 6.58661670e+02


Gurobi 9.0.2 (mac64) logging started Fri Sep 25 17:35:38 2020

Changed value of parameter LogFile to logFiles/ExampleTFA.log
   Prev:   Default: 
Changed value of parameter Threads to 1
   Prev: 0  Min: 0  Max: 1024  Default: 0
Gurobi Optimizer version 9.0.2 build v9.0.2rc0 (mac64)
Optimize a model with 50 rows, 2550 columns and 2550 nonzeros
Model fingerprint: 0x09ddde2c
Model has 13413 quadratic objective terms
Coefficient statistics:
  Matrix range     [2e-02, 2e-02]
  Objective range  [8e+01, 3e+04]
  QObjective range [4e-08, 3e+04]
  Bounds range     [1e-04, 1e-04]
  RHS range        [1e+00, 1e+00]
Warning: Model contains large quadratic objective coefficient range
         Consider reformulating model or setting NumericFocus parameter
         to avoid numerical issues.
Presolve time: 0.00s
Presolved: 50 rows, 2550 columns, 2550 nonzeros
Presolved model has 13413 quadratic objective terms
Ordering time: 0.01s

Barrier statistics:
 Free vars  : 2244
 AA' NZ     : 5.879e+04
 Factor NZ  : 1.397e+05 (roughly 4 MBytes of memory)
 Factor Ops : 8.989e+06 (less than 1 second per iteration)
 Threads    : 1

                  Objective                Residual
Iter       Primal          Dual         Primal    Dual     Compl     Time
   0  -9.27114690e+09 -8.10927840e+07  3.20e+04 1.37e+01  1.00e+06     0s
   1  -2.74367927e+06 -1.60548217e+07  9.40e+00 4.03e-03  6.59e+03     0s
   2  -4.12381704e+03 -1.52930176e+05  1.64e-02 7.03e-06  6.03e+01     0s
   3   6.06165529e+02  5.40140666e+01  4.09e-05 1.75e-08  2.21e-01     0s
   4   6.18006692e+02  6.17431335e+02  6.89e-10 2.91e-13  2.26e-04     0s
   5   6.18006893e+02  6.18006317e+02  9.09e-13 1.46e-11  2.26e-07     0s
   6   6.18006893e+02  6.18006892e+02  5.68e-13 9.09e-12  2.26e-10     0s

Barrier solved model in 6 iterations and 0.07 seconds
Optimal objective 6.18006893e+02


Gurobi 9.0.2 (mac64) logging started Fri Sep 25 17:47:43 2020

Changed value of parameter LogFile to logFiles/ExampleTFA.log
   Prev:   Default: 
Changed value of parameter Threads to 1
   Prev: 0  Min: 0  Max: 1024  Default: 0
Gurobi Optimizer version 9.0.2 build v9.0.2rc0 (mac64)
Optimize a model with 50 rows, 2550 columns and 2550 nonzeros
Model fingerprint: 0x87bcec27
Model has 13413 quadratic objective terms
Coefficient statistics:
  Matrix range     [2e-02, 2e-02]
  Objective range  [6e+01, 3e+04]
  QObjective range [4e-08, 3e+04]
  Bounds range     [1e-04, 1e-04]
  RHS range        [1e+00, 1e+00]
Warning: Model contains large quadratic objective coefficient range
         Consider reformulating model or setting NumericFocus parameter
         to avoid numerical issues.
Presolve time: 0.01s
Presolved: 50 rows, 2550 columns, 2550 nonzeros
Presolved model has 13413 quadratic objective terms
Ordering time: 0.01s

Barrier statistics:
 Free vars  : 2244
 AA' NZ     : 5.947e+04
 Factor NZ  : 1.469e+05 (roughly 4 MBytes of memory)
 Factor Ops : 9.949e+06 (less than 1 second per iteration)
 Threads    : 1

                  Objective                Residual
Iter       Primal          Dual         Primal    Dual     Compl     Time
   0  -9.52869118e+09 -8.20183870e+07  3.20e+04 1.37e+01  1.00e+06     0s
   1  -2.81977849e+06 -1.60548587e+07  9.40e+00 4.03e-03  6.59e+03     0s
   2  -4.26075365e+03 -1.52928271e+05  1.64e-02 7.02e-06  6.03e+01     0s
   3   5.93280584e+02  1.65008863e+01  4.37e-05 1.87e-08  2.31e-01     0s
   4   6.06268776e+02  6.05665826e+02  7.22e-10 3.09e-13  2.37e-04     0s
   5   6.06268992e+02  6.06268389e+02  1.36e-12 1.46e-11  2.37e-07     0s
   6   6.06268992e+02  6.06268992e+02  4.55e-13 1.46e-11  2.37e-10     0s

Barrier solved model in 6 iterations and 0.07 seconds
Optimal objective 6.06268992e+02

